2
150 2
68
30 1 1
31 1 2
32 1 1
33 1 4
34 1 1
35 1 3
36 1 3
37 1 3
38 1 3
39 1 3
40 1 1
41 1 4
42 1 2
43 1 3
44 1 2
45 1 3
46 1 1
47 1 6
48 1 3
49 1 5
50 1 1
51 1 1
52 1 1
53 1 6
54 1 3
55 1 3
56 1 4
57 1 3
58 1 6
59 1 3
60 1 4
62 1 5
63 1 3
64 1 2
65 1 2
66 1 2
67 1 3
68 1 2
69 1 4
70 1 5
71 1 1
72 1 1
73 1 6
74 1 3
75 1 2
76 1 2
77 1 5
78 1 1
79 1 2
81 1 2
82 1 2
83 1 1
84 1 4
85 1 3
86 1 2
87 1 2
88 1 3
89 1 2
90 1 6
91 1 2
92 1 6
94 1 3
95 1 3
96 1 5
97 1 3
98 1 4
99 1 4
100 1 3
